HFVRP/X148-HVRP.vrp
NAME: X148-HVRP
COMMENT: Generated by Uchoa, Pecin, Pessoa, Poggi, Subramanian, and Vidal (2013). Modified by Sadykov, Pessoa and Uchoa (2017). Converted to PyVRP's VRPLIB dialect.
TYPE: HFVRP
DIMENSION: 148
VEHICLES: 55
EDGE_WEIGHT_TYPE: EUC_2D
NODE_COORD_SECTION
1	707	633
2	405	122
3	811	419
4	11	667
5	336	612
6	366	50
7	98	836
8	414	996
9	243	713
10	100	232
11	891	946
12	132	204
13	25	642
14	994	18
15	636	897
16	214	651
17	108	619
18	882	399
19	863	607
20	409	585
21	247	882
22	553	507
23	677	258
24	673	644
25	25	182
26	251	111
27	263	799
28	660	359
29	351	288
30	172	127
31	382	441
32	231	650
33	966	485
34	964	107
35	876	164
36	949	328
37	936	70
38	229	744
39	161	214
40	581	594
41	154	860
42	23	374
43	736	600
44	594	542
45	846	684
46	355	471
47	675	597
48	663	653
49	61	889
50	685	150
51	129	248
52	161	301
53	180	836
54	427	670
55	833	860
56	669	251
57	411	403
58	450	926
59	591	505
60	468	157
61	288	484
62	574	955
63	795	521
64	41	65
65	175	486
66	74	436
67	907	13
68	579	912
69	765	835
70	176	189
71	972	351
72	470	22
73	577	469
74	561	672
75	110	670
76	811	614
77	460	344
78	862	486
79	22	369
80	898	295
81	89	934
82	89	973
83	896	544
84	503	364
85	765	469
86	832	504
87	702	482
88	481	321
89	827	627
90	541	599
91	111	694
92	891	231
93	884	324
94	555	436
95	186	502
96	442	319
97	823	255
98	367	339
99	572	872
100	715	620
101	134	794
102	85	912
103	191	561
104	79	911
105	924	508
106	132	871
107	962	682
108	783	515
109	170	677
110	847	462
111	840	535
112	732	383
113	904	368
114	980	376
115	281	669
116	84	809
117	114	715
118	83	648
119	800	540
120	45	944
121	84	965
122	465	407
123	779	427
124	854	305
125	518	500
126	216	721
127	597	643
128	847	501
129	859	298
130	954	764
131	339	814
132	142	552
133	400	366
134	21	341
135	802	487
136	67	772
137	897	552
138	847	538
139	189	530
140	930	232
141	472	396
142	92	325
143	877	475
144	451	370
145	1	416
146	712	100
147	869	270
148	100	342
DEMAND_SECTION
1	0
2	10
3	4
4	7
5	4
6	8
7	1
8	4
9	1
10	5
11	5
12	1
13	4
14	4
15	4
16	2
17	5
18	3
19	10
20	1
21	2
22	9
23	5
24	5
25	2
26	1
27	7
28	10
29	5
30	10
31	10
32	2
33	9
34	1
35	10
36	9
37	2
38	3
39	4
40	4
41	9
42	10
43	5
44	4
45	10
46	1
47	5
48	8
49	5
50	1
51	6
52	10
53	1
54	6
55	4
56	3
57	7
58	2
59	8
60	6
61	4
62	4
63	2
64	3
65	5
66	6
67	4
68	8
69	2
70	3
71	3
72	5
73	6
74	10
75	8
76	8
77	4
78	6
79	5
80	1
81	5
82	9
83	2
84	8
85	7
86	6
87	5
88	6
89	7
90	10
91	10
92	10
93	1
94	9
95	3
96	10
97	3
98	7
99	2
100	8
101	2
102	5
103	1
104	6
105	4
106	9
107	10
108	8
109	5
110	6
111	4
112	1
113	10
114	9
115	5
116	8
117	6
118	6
119	8
120	5
121	5
122	7
123	9
124	6
125	2
126	3
127	2
128	4
129	7
130	6
131	9
132	2
133	10
134	5
135	6
136	6
137	7
138	7
139	7
140	8
141	9
142	7
143	2
144	6
145	10
146	3
147	10
148	5
CAPACITY_SECTION
1	8
2	8
3	8
4	8
5	8
6	8
7	8
8	8
9	8
10	8
11	8
12	8
13	8
14	8
15	8
16	11
17	11
18	11
19	11
20	11
21	11
22	11
23	11
24	11
25	11
26	11
27	11
28	11
29	16
30	16
31	16
32	16
33	16
34	16
35	16
36	16
37	16
38	16
39	23
40	23
41	23
42	23
43	23
44	23
45	23
46	23
47	23
48	32
49	32
50	32
51	32
52	32
53	32
54	32
55	32
VEHICLES_FIXED_COST_SECTION
1	27600
2	27600
3	27600
4	27600
5	27600
6	27600
7	27600
8	27600
9	27600
10	27600
11	27600
12	27600
13	27600
14	27600
15	27600
16	42200
17	42200
18	42200
19	42200
20	42200
21	42200
22	42200
23	42200
24	42200
25	42200
26	42200
27	42200
28	42200
29	64600
30	64600
31	64600
32	64600
33	64600
34	64600
35	64600
36	64600
37	64600
38	64600
39	98300
40	98300
41	98300
42	98300
43	98300
44	98300
45	98300
46	98300
47	98300
48	147600
49	147600
50	147600
51	147600
52	147600
53	147600
54	147600
55	147600
VEHICLES_UNIT_DISTANCE_COST_SECTION
1	50
2	50
3	50
4	50
5	50
6	50
7	50
8	50
9	50
10	50
11	50
12	50
13	50
14	50
15	50
16	71
17	71
18	71
19	71
20	71
21	71
22	71
23	71
24	71
25	71
26	71
27	71
28	71
29	100
30	100
31	100
32	100
33	100
34	100
35	100
36	100
37	100
38	100
39	141
40	141
41	141
42	141
43	141
44	141
45	141
46	141
47	141
48	200
49	200
50	200
51	200
52	200
53	200
54	200
55	200
DEPOT_SECTION
1
EOF
